unsat
(define-fun q1 () Bool false)
(define-fun q2 () Bool false)
(define-fun g1 ((x Obj)) Bool (labelOf x refrigerator))
(define-fun g2 ((x Obj)) Bool (labelOf x sink))
(define-fun f ((x1 Obj) (x2 Obj)) Bool (labelOf x1 refrigerator))
(define-fun c1 () Bool false)
(define-fun c2 () Bool false)
(define-fun c3 () Bool true)
369.30user 11.81system 6:21.14elapsed 99%CPU (0avgtext+0avgdata 172160maxresident)k
0inputs+0outputs (0major+39843minor)pagefaults 0swaps
kitchen_abc-1.12.1d
